% Logging successfully configured
%%%mzn-stat: initTime=0.001501376
%%%mzn-stat: objective=720
%%%mzn-stat: nodes=589
%%%mzn-stat: restarts=0
%%%mzn-stat: peakDepth=78
%%%mzn-stat: solveTime=0.010541345
%%%mzn-stat: variables=207
%%%mzn-stat: propagators=128
%%%mzn-stat: failures=320
%%%mzn-stat: propagations=7799
%%%mzn-stat: nogoods=320
%%%mzn-stat: numAtomicConstraintsPropagated=0
%%%mzn-stat: allDifferentNumber1TotalHallSetSize=1650
%%%mzn-stat: allDifferentNumber1NumberOfConflicts=287
%%%mzn-stat: allDifferentNumber1MaxHallSetSize=20
%%%mzn-stat: allDifferentNumber1PropagationsTotal=1277
%%%mzn-stat: allDifferentNumber1PropagationsThatFoundConflict=287
%%%mzn-stat: circuitNumber2PropagationsThatFoundConflict=19
%%%mzn-stat: circuitNumber2TotalFixedEdgesAtConflict=249
%%%mzn-stat: circuitNumber2NumberOfConflicts=19
%%%mzn-stat: circuitNumber2PropagationsThatPruned=188
%%%mzn-stat: circuitNumber2PropagationsTotal=646
%%%mzn-stat: AverageConflictSize=5.196875
%%%mzn-stat: NumUnitNogoodsLearned=0
%%%mzn-stat: AverageLearnedNogoodLength=4.9375
%%%mzn-stat: AverageBacktrackAmount=0
%%%mzn-stat: AverageLbd=4.1625
%%%mzn-stat: 2AutonomousSearchNumBackupCalled=68
%%%mzn-stat: 2AutonomousSearchNumPredicatesRemoved=0
%%%mzn-stat: 2AutonomousSearchNumCalls=69
%%%mzn-stat: 2AutonomousSearchNumPredicatesAdded=396
%%%mzn-stat: 2AutonomousSearchAverageSizeOfHeap=5.739130434782608
%%%mzn-stat: 2AutonomousSearchNumAssignedPredicatesEncountered=396
%%%mzn-stat-end
maxleg = 720;
succ = array1d(1..20,[2, 9, 5, 19, 18, 1, 10, 3, 12, 16, 20, 8, 15, 4, 6, 14, 13, 11, 17, 7]);
% time elapsed: 0.49 s
----------
==========
% time elapsed: 0.54 s
%%%mzn-stat: initTime=0.001501376
%%%mzn-stat: objective=720
%%%mzn-stat: nodes=1977
%%%mzn-stat: restarts=0
%%%mzn-stat: peakDepth=78
%%%mzn-stat: solveTime=0.063061267
%%%mzn-stat: variables=207
%%%mzn-stat: propagators=128
%%%mzn-stat: failures=1437
%%%mzn-stat: propagations=42491
%%%mzn-stat: nogoods=1437
%%%mzn-stat: numAtomicConstraintsPropagated=0
%%%mzn-stat: allDifferentNumber1TotalHallSetSize=7325
%%%mzn-stat: allDifferentNumber1NumberOfConflicts=1213
%%%mzn-stat: allDifferentNumber1MaxHallSetSize=20
%%%mzn-stat: allDifferentNumber1PropagationsTotal=5720
%%%mzn-stat: allDifferentNumber1PropagationsThatFoundConflict=1213
%%%mzn-stat: circuitNumber2PropagationsThatFoundConflict=83
%%%mzn-stat: circuitNumber2TotalFixedEdgesAtConflict=991
%%%mzn-stat: circuitNumber2NumberOfConflicts=83
%%%mzn-stat: circuitNumber2PropagationsThatPruned=1285
%%%mzn-stat: circuitNumber2PropagationsTotal=3160
%%%mzn-stat: AverageConflictSize=5.72651356993737
%%%mzn-stat: NumUnitNogoodsLearned=1
%%%mzn-stat: AverageLearnedNogoodLength=6.03061934585943
%%%mzn-stat: AverageBacktrackAmount=0
%%%mzn-stat: AverageLbd=5.080723729993041
%%%mzn-stat: 2AutonomousSearchNumBackupCalled=68
%%%mzn-stat: 2AutonomousSearchNumPredicatesRemoved=0
%%%mzn-stat: 2AutonomousSearchNumCalls=69
%%%mzn-stat: 2AutonomousSearchNumPredicatesAdded=943
%%%mzn-stat: 2AutonomousSearchAverageSizeOfHeap=5.739130434782608
%%%mzn-stat: 2AutonomousSearchNumAssignedPredicatesEncountered=396
%%%mzn-stat-end
